# Generated by ConicBenchmarkUtilities.jl
VER
2

OBJSENSE
MIN

VAR
331 1
F 331

INT
40
26
27
28
29
30
31
32
33
34
35
36
37
38
39
40
41
42
43
44
45
46
47
48
49
50
51
52
53
54
55
56
57
58
59
60
61
62
63
64
65

CON
928 872
L= 1
L= 1
L= 1
L= 1
L= 1
L= 1
L= 1
L= 1
L= 1
L= 1
L= 1
L= 1
L= 1
L= 1
L= 1
L= 1
L= 1
L= 1
L= 1
L= 1
L= 1
L= 1
EXP 3
L+ 1
L+ 1
L= 1
L= 1
L= 1
L= 1
L+ 1
L+ 1
L+ 1
L+ 1
EXP 3
L+ 1
L+ 1
L= 1
L= 1
L= 1
L= 1
L+ 1
L+ 1
L+ 1
L+ 1
L= 1
L= 1
L= 1
L= 1
L= 1
L+ 1
L+ 1
L+ 1
L+ 1
EXP 3
L+ 1
L+ 1
L= 1
L= 1
L= 1
L= 1
L+ 1
L+ 1
L+ 1
L+ 1
L= 1
L= 1
L= 1
L= 1
L= 1
L= 1
L= 1
L= 1
L+ 1
L+ 1
L+ 1
L+ 1
L+ 1
L+ 1
EXP 3
L+ 1
L+ 1
L= 1
L= 1
L= 1
L= 1
L+ 1
L+ 1
L+ 1
L+ 1
EXP 3
L+ 1
L+ 1
L= 1
L= 1
L= 1
L= 1
L+ 1
L+ 1
L+ 1
L+ 1
EXP 3
L+ 1
L+ 1
L= 1
L= 1
L= 1
L= 1
L+ 1
L+ 1
L+ 1
L+ 1
L= 1
L= 1
L= 1
L= 1
L= 1
L+ 1
L+ 1
L+ 1
L+ 1
L= 1
L= 1
L= 1
L= 1
L= 1
L+ 1
L+ 1
L+ 1
L+ 1
EXP 3
L+ 1
L+ 1
L= 1
L= 1
L= 1
L= 1
L+ 1
L+ 1
L+ 1
L+ 1
L= 1
L= 1
L= 1
L= 1
L= 1
L= 1
L= 1
L= 1
L+ 1
L+ 1
L+ 1
L+ 1
L+ 1
L+ 1
EXP 3
L+ 1
L+ 1
L= 1
L= 1
L= 1
L= 1
L+ 1
L+ 1
L+ 1
L+ 1
EXP 3
L+ 1
L+ 1
L= 1
L= 1
L= 1
L= 1
L+ 1
L+ 1
L+ 1
L+ 1
EXP 3
L+ 1
L+ 1
EXP 3
L+ 1
L+ 1
L= 1
L= 1
L= 1
L= 1
L= 1
L= 1
L+ 1
L+ 1
L+ 1
L+ 1
L+ 1
L+ 1
L= 1
L= 1
L= 1
L= 1
L= 1
L+ 1
L+ 1
L+ 1
L+ 1
L= 1
L= 1
L= 1
L= 1
L= 1
L+ 1
L+ 1
L+ 1
L+ 1
EXP 3
L+ 1
L+ 1
L= 1
L= 1
L= 1
L= 1
L+ 1
L+ 1
L+ 1
L+ 1
EXP 3
L+ 1
L+ 1
L= 1
L= 1
L= 1
L= 1
L+ 1
L+ 1
L+ 1
L+ 1
EXP 3
L+ 1
L+ 1
L= 1
L= 1
L= 1
L= 1
L+ 1
L+ 1
L+ 1
L+ 1
EXP 3
L+ 1
L+ 1
L= 1
L= 1
L= 1
L= 1
L+ 1
L+ 1
L+ 1
L+ 1
EXP 3
L+ 1
L+ 1
L= 1
L= 1
L= 1
L= 1
L+ 1
L+ 1
L+ 1
L+ 1
L= 1
L= 1
L= 1
L= 1
L= 1
L+ 1
L+ 1
L+ 1
L+ 1
EXP 3
L+ 1
L+ 1
L= 1
L= 1
L= 1
L= 1
L+ 1
L+ 1
L+ 1
L+ 1
L= 1
L= 1
L= 1
L= 1
L= 1
L= 1
L= 1
L= 1
L+ 1
L+ 1
L+ 1
L+ 1
L+ 1
L+ 1
EXP 3
L+ 1
L+ 1
L= 1
L= 1
L= 1
L= 1
L+ 1
L+ 1
L+ 1
L+ 1
EXP 3
L+ 1
L+ 1
L= 1
L= 1
L= 1
L= 1
L+ 1
L+ 1
L+ 1
L+ 1
EXP 3
L+ 1
L+ 1
L= 1
L= 1
L= 1
L= 1
L+ 1
L+ 1
L+ 1
L+ 1
L= 1
L= 1
L= 1
L= 1
L= 1
L+ 1
L+ 1
L+ 1
L+ 1
L= 1
L= 1
L= 1
L= 1
L= 1
L+ 1
L+ 1
L+ 1
L+ 1
EXP 3
L+ 1
L+ 1
L= 1
L= 1
L= 1
L= 1
L+ 1
L+ 1
L+ 1
L+ 1
L= 1
L= 1
L= 1
L= 1
L= 1
L= 1
L= 1
L= 1
L+ 1
L+ 1
L+ 1
L+ 1
L+ 1
L+ 1
EXP 3
L+ 1
L+ 1
L= 1
L= 1
L= 1
L= 1
L+ 1
L+ 1
L+ 1
L+ 1
EXP 3
L+ 1
L+ 1
L= 1
L= 1
L= 1
L= 1
L+ 1
L+ 1
L+ 1
L+ 1
EXP 3
L+ 1
L+ 1
EXP 3
L+ 1
L+ 1
L= 1
L= 1
L= 1
L= 1
L= 1
L= 1
L+ 1
L+ 1
L+ 1
L+ 1
L+ 1
L+ 1
L= 1
L= 1
L= 1
L= 1
L= 1
L+ 1
L+ 1
L+ 1
L+ 1
L= 1
L= 1
L= 1
L= 1
L= 1
L+ 1
L+ 1
L+ 1
L+ 1
EXP 3
L+ 1
L+ 1
L= 1
L= 1
L= 1
L= 1
L+ 1
L+ 1
L+ 1
L+ 1
EXP 3
L+ 1
L+ 1
L= 1
L= 1
L= 1
L= 1
L+ 1
L+ 1
L+ 1
L+ 1
EXP 3
L+ 1
L+ 1
L= 1
L= 1
L= 1
L= 1
L+ 1
L+ 1
L+ 1
L+ 1
L= 1
L+ 1
L+ 1
L+ 1
L+ 1
L+ 1
L+ 1
L+ 1
L+ 1
L+ 1
L+ 1
L+ 1
L+ 1
L+ 1
L+ 1
L+ 1
L+ 1
L+ 1
L+ 1
L+ 1
L+ 1
L+ 1
L+ 1
L+ 1
L+ 1
L+ 1
L+ 1
L+ 1
L+ 1
L+ 1
L+ 1
L+ 1
L+ 1
L+ 1
L+ 1
L+ 1
L+ 1
L+ 1
L+ 1
L+ 1
L+ 1
L+ 1
L+ 1
L+ 1
L+ 1
L+ 1
L+ 1
L+ 1
L+ 1
L+ 1
L+ 1
L+ 1
L+ 1
L+ 1
L+ 1
L+ 1
L+ 1
L+ 1
L+ 1
L+ 1
L+ 1
L+ 1
L+ 1
L+ 1
L+ 1
L+ 1
L+ 1
L+ 1
L+ 1
L+ 1
L+ 1
L+ 1
L+ 1
L+ 1
L+ 1
L+ 1
L+ 1
L+ 1
L+ 1
L+ 1
L+ 1
L+ 1
L+ 1
L+ 1
L+ 1
L+ 1
L+ 1
L+ 1
L+ 1
L+ 1
L+ 1
L+ 1
L+ 1
L+ 1
L+ 1
L+ 1
L+ 1
L+ 1
L+ 1
L+ 1
L+ 1
L+ 1
L+ 1
L+ 1
L+ 1
L+ 1
L+ 1
L+ 1
L+ 1
L+ 1
L+ 1
L+ 1
L+ 1
L+ 1
L+ 1
L+ 1
L+ 1
L+ 1
L+ 1
L+ 1
L+ 1
L+ 1
L+ 1
L+ 1
L+ 1
L+ 1
L+ 1
L+ 1
L+ 1
L+ 1
L+ 1
L+ 1
L+ 1
L+ 1
L+ 1
L+ 1
L+ 1
L+ 1
L+ 1
L+ 1
L+ 1
L+ 1
L+ 1
L+ 1
L+ 1
L+ 1
L+ 1
L+ 1
L+ 1
L+ 1
L+ 1
L+ 1
L+ 1
L+ 1
L+ 1
L+ 1
L+ 1
L+ 1
L+ 1
L+ 1
L+ 1
L+ 1
L+ 1
L+ 1
L+ 1
L+ 1
L+ 1
L+ 1
L+ 1
L+ 1
L+ 1
L+ 1
L+ 1
L+ 1
L+ 1
L+ 1
L+ 1
L+ 1
L+ 1
L+ 1
L+ 1
L+ 1
L+ 1
L+ 1
L+ 1
L+ 1
L+ 1
L+ 1
L+ 1
L+ 1
L+ 1
L+ 1
L+ 1
L+ 1
L+ 1
L+ 1
L+ 1
L+ 1
L+ 1
L+ 1
L+ 1
L+ 1
L+ 1
L+ 1
L+ 1
L+ 1
L+ 1
L+ 1
L+ 1
L+ 1
L+ 1
L+ 1
L+ 1
L+ 1
L+ 1
L+ 1
L+ 1
L+ 1
L+ 1
L+ 1
L+ 1
L+ 1
L+ 1
L+ 1
L+ 1
L+ 1
L+ 1
L+ 1
L+ 1
L+ 1
L+ 1
L+ 1
L+ 1
L+ 1
L+ 1
L+ 1
L+ 1
L+ 1
L+ 1
L+ 1
L+ 1
L+ 1
L+ 1
L+ 1
L+ 1
L+ 1
L+ 1
L+ 1
L+ 1
L+ 1
L+ 1
L+ 1
L+ 1
L+ 1
L+ 1
L+ 1
L+ 1
L+ 1
L+ 1
L+ 1
L+ 1
L+ 1
L+ 1
L+ 1
L+ 1
L+ 1
L+ 1
L+ 1
L+ 1
L+ 1
L+ 1
L+ 1
L+ 1
L+ 1
L+ 1
L+ 1
L+ 1
L+ 1
L+ 1
L+ 1
L+ 1
L+ 1
L+ 1
L+ 1
L+ 1
L+ 1
L+ 1
L+ 1
L+ 1
L+ 1
L+ 1
L+ 1
L+ 1
L+ 1
L+ 1
L+ 1
L+ 1
L+ 1
L+ 1
L+ 1
L+ 1
L+ 1
L+ 1
L+ 1
L+ 1
L+ 1
L+ 1
L+ 1
L+ 1
L+ 1
L+ 1
L+ 1
L+ 1
L+ 1
L+ 1
L+ 1
L+ 1
L+ 1
L+ 1
L+ 1
L+ 1
L+ 1
L+ 1
L+ 1
L+ 1
L+ 1
L+ 1
L+ 1
L+ 1
L+ 1
L+ 1
L+ 1
L+ 1
L+ 1
L+ 1
L+ 1
L+ 1
L+ 1
L+ 1
L+ 1
L+ 1
L+ 1
L+ 1
L+ 1
L+ 1
L+ 1
L+ 1
L+ 1
L+ 1
L+ 1
L+ 1
L+ 1
L+ 1
L+ 1
L+ 1
L+ 1
L+ 1
L+ 1
L+ 1
L+ 1
L+ 1
L+ 1
L+ 1
L+ 1
L+ 1
L+ 1
L+ 1
L+ 1
L+ 1
L+ 1
L+ 1
L+ 1
L+ 1
L+ 1
L+ 1
L+ 1
L+ 1
L+ 1
L+ 1
L+ 1
L+ 1
L+ 1
L+ 1
L+ 1
L+ 1
L+ 1
L+ 1
L+ 1
L+ 1
L+ 1
L+ 1
L+ 1
L+ 1
L+ 1
L+ 1
L+ 1
L+ 1
L+ 1
L+ 1
L+ 1
L+ 1
L+ 1
L+ 1
L+ 1

OBJACOORD
1
66 -1.0

ACOORD
1560
0 0 -1.0
1 0 1.0
579 0 1.0
580 0 -1.0
0 1 5.0
3 1 -1.0
586 1 1.0
0 2 -2.0
76 2 1.0
591 2 1.0
592 2 -1.0
0 3 -10.0
160 3 1.0
609 3 1.0
610 3 -1.0
0 4 -5.0
8 4 -1.0
611 4 1.0
612 4 -1.0
0 5 40.0
161 5 1.0
619 5 1.0
0 6 15.0
176 6 1.0
620 6 1.0
0 7 10.0
189 7 1.0
621 7 1.0
0 8 30.0
209 8 1.0
622 8 1.0
0 9 35.0
220 9 1.0
623 9 1.0
0 10 20.0
229 10 1.0
624 10 1.0
0 11 25.0
242 11 1.0
625 11 1.0
0 12 15.0
255 12 1.0
626 12 1.0
0 13 30.0
14 13 -1.0
634 13 1.0
0 14 -1.0
327 14 1.0
639 14 1.0
640 14 -1.0
0 15 -5.0
411 15 1.0
657 15 1.0
658 15 -1.0
0 16 -1.0
19 16 -1.0
659 16 1.0
660 16 -1.0
0 17 120.0
412 17 1.0
667 17 1.0
0 18 140.0
427 18 1.0
668 18 1.0
0 19 90.0
440 19 1.0
669 19 1.0
0 20 80.0
460 20 1.0
670 20 1.0
0 21 285.0
471 21 1.0
671 21 1.0
0 22 290.0
480 22 1.0
672 22 1.0
0 23 280.0
493 23 1.0
673 23 1.0
0 24 290.0
506 24 1.0
674 24 1.0
0 25 350.0
519 25 1.0
675 25 1.0
0 26 -5.0
22 26 1.0
23 26 1.0
25 26 1.0
31 26 40.0
32 26 -40.0
33 26 3.71357206670431
34 26 -3.71357206670431
524 26 1.0
574 26 1.0
575 26 1.0
576 26 1.0
848 26 1.0
849 26 -1.0
0 27 -8.0
35 27 1.0
36 27 1.0
38 27 1.0
44 27 40.0
45 27 -40.0
46 27 4.45628648004517
47 27 -4.45628648004517
524 27 1.0
574 27 1.0
575 27 1.0
576 27 1.0
850 27 1.0
851 27 -1.0
0 28 -6.0
53 28 4.45628648004517
54 28 -4.45628648004517
55 28 3.34221486003388
56 28 -3.34221486003388
525 28 -1.0
534 28 1.0
535 28 1.0
574 28 -1.0
852 28 1.0
853 28 -1.0
0 29 -10.0
57 29 1.0
58 29 1.0
60 29 1.0
66 29 4.45628648004517
67 29 -4.45628648004517
68 29 2.54515263975353
69 29 -2.54515263975353
528 29 -1.0
536 29 1.0
575 29 -1.0
854 29 1.0
855 29 -1.0
0 30 -6.0
78 30 4.45628648004517
79 30 -4.45628648004517
80 30 30.0
81 30 -30.0
82 30 15.0
83 30 -15.0
530 30 -1.0
537 30 1.0
538 30 1.0
539 30 1.0
576 30 -1.0
856 30 1.0
857 30 -1.0
0 31 -7.0
84 31 1.0
85 31 1.0
87 31 1.0
93 31 3.34221486003388
94 31 -3.34221486003388
95 31 1.83548069293539
96 31 -1.83548069293539
525 31 1.0
526 31 -1.0
534 31 -1.0
540 31 1.0
858 31 1.0
859 31 -1.0
0 32 -4.0
97 32 1.0
98 32 1.0
100 32 1.0
106 32 3.34221486003388
107 32 -3.34221486003388
108 32 1.32154609891348
109 32 -1.32154609891348
525 32 1.0
527 32 -1.0
535 32 -1.0
541 32 1.0
860 32 1.0
861 32 -1.0
0 33 -5.0
110 33 1.0
111 33 1.0
113 33 1.0
119 33 2.54515263975353
120 33 -2.54515263975353
121 33 1.26558121681553
122 33 -1.26558121681553
528 33 1.0
529 33 -1.0
536 33 -1.0
542 33 1.0
543 33 1.0
862 33 1.0
863 33 -1.0
0 34 -2.0
128 34 15.0
129 34 -15.0
130 34 13.5
131 34 -13.5
530 34 1.0
531 34 -1.0
537 34 -1.0
864 34 1.0
865 34 -1.0
0 35 -4.0
137 35 15.0
138 35 -15.0
139 35 9.0
140 35 -9.0
530 35 1.0
532 35 -1.0
538 35 -1.0
544 35 1.0
545 35 1.0
866 35 1.0
867 35 -1.0
0 36 -3.0
141 36 1.0
142 36 1.0
144 36 1.0
150 36 15.0
151 36 -15.0
152 36 3.04984759446376
153 36 -3.04984759446376
530 36 1.0
533 36 -1.0
539 36 -1.0
546 36 1.0
547 36 1.0
548 36 1.0
868 36 1.0
869 36 -1.0
0 37 -7.0
162 37 1.83548069293539
163 37 -1.83548069293539
164 37 20.0
165 37 -20.0
166 37 20.0
167 37 -20.0
526 37 1.0
540 37 -1.0
870 37 1.0
871 37 -1.0
0 38 -3.0
168 38 1.0
169 38 1.0
171 38 1.0
177 38 1.32154609891348
178 38 -1.32154609891348
179 38 0.842233385663186
180 38 -0.842233385663186
527 38 1.0
541 38 -1.0
872 38 1.0
873 38 -1.0
0 39 -2.0
181 39 1.0
182 39 1.0
184 39 1.0
190 39 1.26558121681553
191 39 -1.26558121681553
192 39 0.572481933717686
193 39 -0.572481933717686
529 39 1.0
542 39 -1.0
874 39 1.0
875 39 -1.0
0 40 -4.0
194 40 1.0
195 40 1.0
197 40 1.0
199 40 1.0
200 40 1.0
202 40 1.0
210 40 1.26558121681553
211 40 -1.26558121681553
212 40 33.5
213 40 -33.5
214 40 2.30162356062425
215 40 -2.30162356062425
529 40 1.0
531 40 1.0
543 40 -1.0
876 40 1.0
877 40 -1.0
0 41 -2.0
221 41 9.0
222 41 -9.0
223 41 9.0
224 41 -9.0
532 41 1.0
544 41 -1.0
878 41 1.0
879 41 -1.0
0 42 -3.0
230 42 9.0
231 42 -9.0
232 42 9.0
233 42 -9.0
532 42 1.0
545 42 -1.0
880 42 1.0
881 42 -1.0
0 43 -5.0
234 43 1.0
235 43 1.0
237 43 1.0
243 43 3.04984759446376
244 43 -3.04984759446376
245 43 1.04900943706034
246 43 -1.04900943706034
533 43 1.0
546 43 -1.0
882 43 1.0
883 43 -1.0
0 44 -2.0
247 44 1.0
248 44 1.0
250 44 1.0
256 44 3.04984759446376
257 44 -3.04984759446376
258 44 1.11894339953103
259 44 -1.11894339953103
533 44 1.0
547 44 -1.0
884 44 1.0
885 44 -1.0
0 45 -1.0
260 45 1.0
261 45 1.0
263 45 1.0
269 45 3.04984759446376
270 45 -3.04984759446376
271 45 1.18887736200171
272 45 -1.18887736200171
533 45 1.0
548 45 -1.0
549 45 -1.0
577 45 1.0
578 45 1.0
886 45 1.0
887 45 -1.0
0 46 -2.0
273 46 1.0
274 46 1.0
276 46 1.0
282 46 1.18887736200171
283 46 -1.18887736200171
284 46 0.78338879230327
285 46 -0.78338879230327
549 46 1.0
577 46 -1.0
888 46 1.0
889 46 -1.0
0 47 -9.0
286 47 1.0
287 47 1.0
289 47 1.0
295 47 1.18887736200171
296 47 -1.18887736200171
297 47 0.940066550763924
298 47 -0.940066550763924
549 47 1.0
578 47 -1.0
890 47 1.0
891 47 -1.0
0 48 -5.0
304 48 0.940066550763924
305 48 -0.940066550763924
306 48 0.705049913072943
307 48 -0.705049913072943
550 48 -1.0
559 48 1.0
560 48 1.0
892 48 1.0
893 48 -1.0
0 49 -2.0
308 49 1.0
309 49 1.0
311 49 1.0
317 49 0.940066550763924
318 49 -0.940066550763924
319 49 0.994083415506506
320 49 -0.994083415506506
553 49 -1.0
563 49 1.0
894 49 1.0
895 49 -1.0
0 50 -10.0
329 50 0.940066550763924
330 50 -0.940066550763924
331 50 30.0
332 50 -30.0
333 50 15.0
334 50 -15.0
555 50 -1.0
566 50 1.0
567 50 1.0
568 50 1.0
896 50 1.0
897 50 -1.0
0 51 -4.0
335 51 1.0
336 51 1.0
338 51 1.0
344 51 0.705049913072943
345 51 -0.705049913072943
346 51 0.666992981045719
347 51 -0.666992981045719
550 51 1.0
551 51 -1.0
559 51 -1.0
561 51 1.0
898 51 1.0
899 51 -1.0
0 52 -7.0
348 52 1.0
349 52 1.0
351 52 1.0
357 52 0.705049913072943
358 52 -0.705049913072943
359 52 0.480234946352917
360 52 -0.480234946352917
550 52 1.0
552 52 -1.0
560 52 -1.0
562 52 1.0
900 52 1.0
901 52 -1.0
0 53 -4.0
361 53 1.0
362 53 1.0
364 53 1.0
370 53 0.994083415506506
371 53 -0.994083415506506
372 53 0.690184503917672
373 53 -0.690184503917672
553 53 1.0
554 53 -1.0
563 53 -1.0
564 53 1.0
565 53 1.0
902 53 1.0
903 53 -1.0
0 54 -2.0
379 54 15.0
380 54 -15.0
381 54 13.5
382 54 -13.5
555 54 1.0
556 54 -1.0
566 54 -1.0
904 54 1.0
905 54 -1.0
0 55 -8.0
388 55 15.0
389 55 -15.0
390 55 9.0
391 55 -9.0
555 55 1.0
557 55 -1.0
567 55 -1.0
569 55 1.0
570 55 1.0
906 55 1.0
907 55 -1.0
0 56 -9.0
392 56 1.0
393 56 1.0
395 56 1.0
401 56 15.0
402 56 -15.0
403 56 3.04984759446376
404 56 -3.04984759446376
555 56 1.0
558 56 -1.0
568 56 -1.0
571 56 1.0
572 56 1.0
573 56 1.0
908 56 1.0
909 56 -1.0
0 57 -3.0
413 57 0.666992981045719
414 57 -0.666992981045719
415 57 25.0
416 57 -25.0
417 57 25.0
418 57 -25.0
551 57 1.0
561 57 -1.0
910 57 1.0
911 57 -1.0
0 58 -5.0
419 58 1.0
420 58 1.0
422 58 1.0
428 58 0.480234946352917
429 58 -0.480234946352917
430 58 0.392200822712722
431 58 -0.392200822712722
552 58 1.0
562 58 -1.0
912 58 1.0
913 58 -1.0
0 59 -5.0
432 59 1.0
433 59 1.0
435 59 1.0
441 59 0.690184503917672
442 59 -0.690184503917672
443 59 0.367386387824208
444 59 -0.367386387824208
554 59 1.0
564 59 -1.0
914 59 1.0
915 59 -1.0
0 60 -6.0
445 60 1.0
446 60 1.0
448 60 1.0
450 60 1.0
451 60 1.0
453 60 1.0
461 60 0.690184503917672
462 60 -0.690184503917672
463 60 38.5
464 60 -38.5
465 60 2.3895954367396
466 60 -2.3895954367396
554 60 1.0
556 60 1.0
565 60 -1.0
916 60 1.0
917 60 -1.0
0 61 -2.0
472 61 9.0
473 61 -9.0
474 61 9.0
475 61 -9.0
557 61 1.0
569 61 -1.0
918 61 1.0
919 61 -1.0
0 62 -6.0
481 62 9.0
482 62 -9.0
483 62 9.0
484 62 -9.0
557 62 1.0
570 62 -1.0
920 62 1.0
921 62 -1.0
0 63 -3.0
485 63 1.0
486 63 1.0
488 63 1.0
494 63 3.04984759446376
495 63 -3.04984759446376
496 63 1.04900943706034
497 63 -1.04900943706034
558 63 1.0
571 63 -1.0
922 63 1.0
923 63 -1.0
0 64 -5.0
498 64 1.0
499 64 1.0
501 64 1.0
507 64 3.04984759446376
508 64 -3.04984759446376
509 64 1.11894339953103
510 64 -1.11894339953103
558 64 1.0
572 64 -1.0
924 64 1.0
925 64 -1.0
0 65 -9.0
511 65 1.0
512 65 1.0
514 65 1.0
520 65 3.04984759446376
521 65 -3.04984759446376
522 65 1.18887736200171
523 65 -1.18887736200171
558 65 1.0
573 65 -1.0
926 65 1.0
927 65 -1.0
0 66 -1.0
1 67 -1.0
29 67 1.0
581 67 1.0
1 68 -1.0
42 68 1.0
582 68 1.0
2 69 -1.0
30 69 1.0
583 69 1.0
2 70 -1.0
43 70 1.0
584 70 1.0
2 71 1.0
3 71 1.0
585 71 1.0
3 72 -1.0
4 72 1.0
587 72 1.0
4 73 -1.0
51 73 1.0
588 73 1.0
4 74 -1.0
64 74 1.0
589 74 1.0
4 75 -1.0
75 75 1.0
590 75 1.0
5 76 1.0
52 76 1.0
593 76 1.0
5 77 -1.0
91 77 1.0
596 77 1.0
5 78 -1.0
104 78 1.0
597 78 1.0
6 79 1.0
77 79 1.0
595 79 1.0
6 80 -1.0
126 80 1.0
598 80 1.0
6 81 -1.0
135 81 1.0
599 81 1.0
6 82 -1.0
148 82 1.0
600 82 1.0
7 83 1.0
118 83 1.0
603 83 1.0
7 84 -1.0
188 84 1.0
607 84 1.0
7 85 -1.0
207 85 1.0
608 85 1.0
8 86 -1.0
127 86 1.0
604 86 1.0
8 87 1.0
208 87 1.0
613 87 1.0
9 88 1.0
136 88 1.0
605 88 1.0
9 89 -1.0
219 89 1.0
614 89 1.0
9 90 -1.0
228 90 1.0
615 90 1.0
10 91 1.0
149 91 1.0
606 91 1.0
10 92 -1.0
241 92 1.0
616 92 1.0
10 93 -1.0
254 93 1.0
617 93 1.0
10 94 -1.0
267 94 1.0
618 94 1.0
11 95 1.0
268 95 1.0
627 95 1.0
11 96 -1.0
12 96 1.0
628 96 1.0
12 97 -1.0
280 97 1.0
629 97 1.0
12 98 -1.0
293 98 1.0
630 98 1.0
13 99 -1.0
281 99 1.0
631 99 1.0
13 100 -1.0
294 100 1.0
632 100 1.0
13 101 1.0
14 101 1.0
633 101 1.0
14 102 -1.0
15 102 1.0
635 102 1.0
15 103 -1.0
302 103 1.0
636 103 1.0
15 104 -1.0
315 104 1.0
637 104 1.0
15 105 -1.0
326 105 1.0
638 105 1.0
16 106 1.0
303 106 1.0
641 106 1.0
16 107 -1.0
342 107 1.0
644 107 1.0
16 108 -1.0
355 108 1.0
645 108 1.0
17 109 1.0
328 109 1.0
643 109 1.0
17 110 -1.0
377 110 1.0
646 110 1.0
17 111 -1.0
386 111 1.0
647 111 1.0
17 112 -1.0
399 112 1.0
648 112 1.0
18 113 1.0
369 113 1.0
651 113 1.0
18 114 -1.0
439 114 1.0
655 114 1.0
18 115 -1.0
458 115 1.0
656 115 1.0
19 116 -1.0
378 116 1.0
652 116 1.0
19 117 1.0
459 117 1.0
661 117 1.0
20 118 1.0
387 118 1.0
653 118 1.0
20 119 -1.0
470 119 1.0
662 119 1.0
20 120 -1.0
479 120 1.0
663 120 1.0
21 121 1.0
400 121 1.0
654 121 1.0
21 122 -1.0
492 122 1.0
664 122 1.0
21 123 -1.0
505 123 1.0
665 123 1.0
21 124 -1.0
518 124 1.0
666 124 1.0
24 125 -1.0
26 125 -1.0
22 126 1.0
25 126 1.0
29 126 -1.0
31 126 -1.0
676 126 1.0
26 127 -1.0
30 127 -1.0
33 127 -1.0
680 127 1.0
27 128 1.0
29 128 -1.0
32 128 -1.0
677 128 1.0
28 129 1.0
30 129 -1.0
34 129 -1.0
681 129 1.0
37 130 -1.0
39 130 -1.2
35 131 1.0
38 131 1.0
42 131 -1.0
44 131 -1.0
678 131 1.0
39 132 -1.0
43 132 -1.0
46 132 -1.0
682 132 1.0
40 133 1.0
42 133 -1.0
45 133 -1.0
679 133 1.0
41 134 1.0
43 134 -1.0
47 134 -1.0
683 134 1.0
48 135 -0.75
51 135 -1.0
53 135 -1.0
684 135 1.0
48 136 1.0
52 136 -1.0
55 136 -1.0
692 136 1.0
49 137 1.0
51 137 -1.0
54 137 -1.0
685 137 1.0
50 138 1.0
52 138 -1.0
56 138 -1.0
693 138 1.0
59 139 -1.0
61 139 -1.5
57 140 1.0
60 140 1.0
64 140 -1.0
66 140 -1.0
686 140 1.0
61 141 -1.0
65 141 -1.0
68 141 -1.0
694 141 1.0
62 142 1.0
64 142 -1.0
67 142 -1.0
687 142 1.0
63 143 1.0
65 143 -1.0
69 143 -1.0
696 143 1.0
65 144 1.0
117 144 1.0
594 144 1.0
70 145 -1.0
75 145 -1.0
78 145 -1.0
688 145 1.0
70 146 1.0
71 146 1.0
77 146 -1.0
82 146 -1.0
698 146 1.0
71 147 -0.5
76 147 -1.0
80 147 -1.0
690 147 1.0
72 148 1.0
75 148 -1.0
79 148 -1.0
689 148 1.0
73 149 1.0
76 149 -1.0
81 149 -1.0
691 149 1.0
74 150 1.0
77 150 -1.0
83 150 -1.0
699 150 1.0
86 151 -1.0
88 151 -1.25
84 152 1.0
87 152 1.0
91 152 -1.0
93 152 -1.0
700 152 1.0
88 153 -1.0
92 153 -1.0
95 153 -1.0
710 153 1.0
89 154 1.0
91 154 -1.0
94 154 -1.0
701 154 1.0
90 155 1.0
92 155 -1.0
96 155 -1.0
712 155 1.0
92 156 1.0
159 156 1.0
601 156 1.0
99 157 -1.0
101 157 -0.9
97 158 1.0
100 158 1.0
104 158 -1.0
106 158 -1.0
702 158 1.0
101 159 -1.0
105 159 -1.0
108 159 -1.0
714 159 1.0
102 160 1.0
104 160 -1.0
107 160 -1.0
703 160 1.0
103 161 1.0
105 161 -1.0
109 161 -1.0
716 161 1.0
105 162 1.0
175 162 1.0
602 162 1.0
112 163 -1.0
114 163 -1.0
110 164 1.0
113 164 1.0
117 164 -1.0
119 164 -1.0
695 164 1.0
114 165 -1.0
118 165 -1.0
121 165 -1.0
718 165 1.0
115 166 1.0
117 166 -1.0
120 166 -1.0
697 166 1.0
116 167 1.0
118 167 -1.0
122 167 -1.0
719 167 1.0
123 168 -0.9
126 168 -1.0
128 168 -1.0
704 168 1.0
123 169 1.0
127 169 -1.0
130 169 -1.0
720 169 1.0
124 170 1.0
126 170 -1.0
129 170 -1.0
705 170 1.0
125 171 1.0
127 171 -1.0
131 171 -1.0
721 171 1.0
132 172 -0.6
135 172 -1.0
137 172 -1.0
706 172 1.0
132 173 1.0
136 173 -1.0
139 173 -1.0
722 173 1.0
133 174 1.0
135 174 -1.0
138 174 -1.0
707 174 1.0
134 175 1.0
136 175 -1.0
140 175 -1.0
723 175 1.0
143 176 -1.0
145 176 -1.1
141 177 1.0
144 177 1.0
148 177 -1.0
150 177 -1.0
708 177 1.0
145 178 -1.0
149 178 -1.0
152 178 -1.0
724 178 1.0
146 179 1.0
148 179 -1.0
151 179 -1.0
709 179 1.0
147 180 1.0
149 180 -1.0
153 180 -1.0
725 180 1.0
154 181 -0.9
159 181 -1.0
162 181 -1.0
711 181 1.0
154 182 1.0
155 182 1.0
161 182 -1.0
166 182 -1.0
744 182 1.0
155 183 -1.0
160 183 -1.0
164 183 -1.0
730 183 1.0
156 184 1.0
159 184 -1.0
163 184 -1.0
713 184 1.0
157 185 1.0
160 185 -1.0
165 185 -1.0
731 185 1.0
158 186 1.0
161 186 -1.0
167 186 -1.0
745 186 1.0
170 187 -1.0
172 187 -1.0
168 188 1.0
171 188 1.0
175 188 -1.0
177 188 -1.0
715 188 1.0
172 189 -1.0
176 189 -1.0
179 189 -1.0
746 189 1.0
173 190 1.0
175 190 -1.0
178 190 -1.0
717 190 1.0
174 191 1.0
176 191 -1.0
180 191 -1.0
747 191 1.0
183 192 -1.0
185 192 -0.7
181 193 1.0
184 193 1.0
188 193 -1.0
190 193 -1.0
726 193 1.0
185 194 -1.0
189 194 -1.0
192 194 -1.0
748 194 1.0
186 195 1.0
188 195 -1.0
191 195 -1.0
727 195 1.0
187 196 1.0
189 196 -1.0
193 196 -1.0
749 196 1.0
196 197 -1.0
198 197 -0.65
194 198 1.0
197 198 1.0
207 198 -1.0
210 198 -1.0
728 198 1.0
198 199 -1.0
203 199 -1.0
209 199 -1.0
214 199 -1.0
750 199 1.0
201 200 -1.0
203 200 -0.65
199 201 1.0
202 201 1.0
208 201 -1.0
212 201 -1.0
732 201 1.0
204 202 1.0
207 202 -1.0
211 202 -1.0
729 202 1.0
205 203 1.0
208 203 -1.0
213 203 -1.0
733 203 1.0
206 204 1.0
209 204 -1.0
215 204 -1.0
751 204 1.0
216 205 -1.0
219 205 -1.0
221 205 -1.0
734 205 1.0
216 206 1.0
220 206 -1.0
223 206 -1.0
752 206 1.0
217 207 1.0
219 207 -1.0
222 207 -1.0
735 207 1.0
218 208 1.0
220 208 -1.0
224 208 -1.0
753 208 1.0
225 209 -1.0
228 209 -1.0
230 209 -1.0
736 209 1.0
225 210 1.0
229 210 -1.0
232 210 -1.0
754 210 1.0
226 211 1.0
228 211 -1.0
231 211 -1.0
737 211 1.0
227 212 1.0
229 212 -1.0
233 212 -1.0
755 212 1.0
236 213 -1.0
238 213 -0.75
234 214 1.0
237 214 1.0
241 214 -1.0
243 214 -1.0
738 214 1.0
238 215 -1.0
242 215 -1.0
245 215 -1.0
756 215 1.0
239 216 1.0
241 216 -1.0
244 216 -1.0
739 216 1.0
240 217 1.0
242 217 -1.0
246 217 -1.0
757 217 1.0
249 218 -1.0
251 218 -0.8
247 219 1.0
250 219 1.0
254 219 -1.0
256 219 -1.0
740 219 1.0
251 220 -1.0
255 220 -1.0
258 220 -1.0
758 220 1.0
252 221 1.0
254 221 -1.0
257 221 -1.0
741 221 1.0
253 222 1.0
255 222 -1.0
259 222 -1.0
759 222 1.0
262 223 -1.0
264 223 -0.85
260 224 1.0
263 224 1.0
267 224 -1.0
269 224 -1.0
742 224 1.0
264 225 -1.0
268 225 -1.0
271 225 -1.0
760 225 1.0
265 226 1.0
267 226 -1.0
270 226 -1.0
743 226 1.0
266 227 1.0
268 227 -1.0
272 227 -1.0
761 227 1.0
275 228 -1.0
277 228 -1.0
273 229 1.0
276 229 1.0
280 229 -1.0
282 229 -1.0
762 229 1.0
277 230 -1.0
281 230 -1.0
284 230 -1.0
766 230 1.0
278 231 1.0
280 231 -1.0
283 231 -1.0
763 231 1.0
279 232 1.0
281 232 -1.0
285 232 -1.0
767 232 1.0
288 233 -1.0
290 233 -1.2
286 234 1.0
289 234 1.0
293 234 -1.0
295 234 -1.0
764 234 1.0
290 235 -1.0
294 235 -1.0
297 235 -1.0
768 235 1.0
291 236 1.0
293 236 -1.0
296 236 -1.0
765 236 1.0
292 237 1.0
294 237 -1.0
298 237 -1.0
769 237 1.0
299 238 -0.75
302 238 -1.0
304 238 -1.0
770 238 1.0
299 239 1.0
303 239 -1.0
306 239 -1.0
778 239 1.0
300 240 1.0
302 240 -1.0
305 240 -1.0
771 240 1.0
301 241 1.0
303 241 -1.0
307 241 -1.0
779 241 1.0
310 242 -1.0
312 242 -1.5
308 243 1.0
311 243 1.0
315 243 -1.0
317 243 -1.0
772 243 1.0
312 244 -1.0
316 244 -1.0
319 244 -1.0
780 244 1.0
313 245 1.0
315 245 -1.0
318 245 -1.0
773 245 1.0
314 246 1.0
316 246 -1.0
320 246 -1.0
782 246 1.0
316 247 1.0
368 247 1.0
642 247 1.0
321 248 -1.0
326 248 -1.0
329 248 -1.0
774 248 1.0
321 249 1.0
322 249 1.0
328 249 -1.0
333 249 -1.0
784 249 1.0
322 250 -0.5
327 250 -1.0
331 250 -1.0
776 250 1.0
323 251 1.0
326 251 -1.0
330 251 -1.0
775 251 1.0
324 252 1.0
327 252 -1.0
332 252 -1.0
777 252 1.0
325 253 1.0
328 253 -1.0
334 253 -1.0
785 253 1.0
337 254 -1.0
339 254 -1.25
335 255 1.0
338 255 1.0
342 255 -1.0
344 255 -1.0
786 255 1.0
339 256 -1.0
343 256 -1.0
346 256 -1.0
796 256 1.0
340 257 1.0
342 257 -1.0
345 257 -1.0
787 257 1.0
341 258 1.0
343 258 -1.0
347 258 -1.0
798 258 1.0
343 259 1.0
410 259 1.0
649 259 1.0
350 260 -1.0
352 260 -0.9
348 261 1.0
351 261 1.0
355 261 -1.0
357 261 -1.0
788 261 1.0
352 262 -1.0
356 262 -1.0
359 262 -1.0
800 262 1.0
353 263 1.0
355 263 -1.0
358 263 -1.0
789 263 1.0
354 264 1.0
356 264 -1.0
360 264 -1.0
802 264 1.0
356 265 1.0
426 265 1.0
650 265 1.0
363 266 -1.0
365 266 -1.0
361 267 1.0
364 267 1.0
368 267 -1.0
370 267 -1.0
781 267 1.0
365 268 -1.0
369 268 -1.0
372 268 -1.0
804 268 1.0
366 269 1.0
368 269 -1.0
371 269 -1.0
783 269 1.0
367 270 1.0
369 270 -1.0
373 270 -1.0
805 270 1.0
374 271 -0.9
377 271 -1.0
379 271 -1.0
790 271 1.0
374 272 1.0
378 272 -1.0
381 272 -1.0
806 272 1.0
375 273 1.0
377 273 -1.0
380 273 -1.0
791 273 1.0
376 274 1.0
378 274 -1.0
382 274 -1.0
807 274 1.0
383 275 -0.6
386 275 -1.0
388 275 -1.0
792 275 1.0
383 276 1.0
387 276 -1.0
390 276 -1.0
808 276 1.0
384 277 1.0
386 277 -1.0
389 277 -1.0
793 277 1.0
385 278 1.0
387 278 -1.0
391 278 -1.0
809 278 1.0
394 279 -1.0
396 279 -1.1
392 280 1.0
395 280 1.0
399 280 -1.0
401 280 -1.0
794 280 1.0
396 281 -1.0
400 281 -1.0
403 281 -1.0
810 281 1.0
397 282 1.0
399 282 -1.0
402 282 -1.0
795 282 1.0
398 283 1.0
400 283 -1.0
404 283 -1.0
811 283 1.0
405 284 -0.9
410 284 -1.0
413 284 -1.0
797 284 1.0
405 285 1.0
406 285 1.0
412 285 -1.0
417 285 -1.0
830 285 1.0
406 286 -1.0
411 286 -1.0
415 286 -1.0
816 286 1.0
407 287 1.0
410 287 -1.0
414 287 -1.0
799 287 1.0
408 288 1.0
411 288 -1.0
416 288 -1.0
817 288 1.0
409 289 1.0
412 289 -1.0
418 289 -1.0
831 289 1.0
421 290 -1.0
423 290 -1.0
419 291 1.0
422 291 1.0
426 291 -1.0
428 291 -1.0
801 291 1.0
423 292 -1.0
427 292 -1.0
430 292 -1.0
832 292 1.0
424 293 1.0
426 293 -1.0
429 293 -1.0
803 293 1.0
425 294 1.0
427 294 -1.0
431 294 -1.0
833 294 1.0
434 295 -1.0
436 295 -0.7
432 296 1.0
435 296 1.0
439 296 -1.0
441 296 -1.0
812 296 1.0
436 297 -1.0
440 297 -1.0
443 297 -1.0
834 297 1.0
437 298 1.0
439 298 -1.0
442 298 -1.0
813 298 1.0
438 299 1.0
440 299 -1.0
444 299 -1.0
835 299 1.0
447 300 -1.0
449 300 -0.65
445 301 1.0
448 301 1.0
458 301 -1.0
461 301 -1.0
814 301 1.0
449 302 -1.0
454 302 -1.0
460 302 -1.0
465 302 -1.0
836 302 1.0
452 303 -1.0
454 303 -0.65
450 304 1.0
453 304 1.0
459 304 -1.0
463 304 -1.0
818 304 1.0
455 305 1.0
458 305 -1.0
462 305 -1.0
815 305 1.0
456 306 1.0
459 306 -1.0
464 306 -1.0
819 306 1.0
457 307 1.0
460 307 -1.0
466 307 -1.0
837 307 1.0
467 308 -1.0
470 308 -1.0
472 308 -1.0
820 308 1.0
467 309 1.0
471 309 -1.0
474 309 -1.0
838 309 1.0
468 310 1.0
470 310 -1.0
473 310 -1.0
821 310 1.0
469 311 1.0
471 311 -1.0
475 311 -1.0
839 311 1.0
476 312 -1.0
479 312 -1.0
481 312 -1.0
822 312 1.0
476 313 1.0
480 313 -1.0
483 313 -1.0
840 313 1.0
477 314 1.0
479 314 -1.0
482 314 -1.0
823 314 1.0
478 315 1.0
480 315 -1.0
484 315 -1.0
841 315 1.0
487 316 -1.0
489 316 -0.75
485 317 1.0
488 317 1.0
492 317 -1.0
494 317 -1.0
824 317 1.0
489 318 -1.0
493 318 -1.0
496 318 -1.0
842 318 1.0
490 319 1.0
492 319 -1.0
495 319 -1.0
825 319 1.0
491 320 1.0
493 320 -1.0
497 320 -1.0
843 320 1.0
500 321 -1.0
502 321 -0.8
498 322 1.0
501 322 1.0
505 322 -1.0
507 322 -1.0
826 322 1.0
502 323 -1.0
506 323 -1.0
509 323 -1.0
844 323 1.0
503 324 1.0
505 324 -1.0
508 324 -1.0
827 324 1.0
504 325 1.0
506 325 -1.0
510 325 -1.0
845 325 1.0
513 326 -1.0
515 326 -0.85
511 327 1.0
514 327 1.0
518 327 -1.0
520 327 -1.0
828 327 1.0
515 328 -1.0
519 328 -1.0
522 328 -1.0
846 328 1.0
516 329 1.0
518 329 -1.0
521 329 -1.0
829 329 1.0
517 330 1.0
519 330 -1.0
523 330 -1.0
847 330 1.0

BCOORD
134
32 40.0
34 3.71357206670431
45 40.0
47 4.45628648004517
54 4.45628648004517
56 3.34221486003388
67 4.45628648004517
69 2.54515263975353
79 4.45628648004517
81 30.0
83 15.0
94 3.34221486003388
96 1.83548069293539
107 3.34221486003388
109 1.32154609891348
120 2.54515263975353
122 1.26558121681553
129 15.0
131 13.5
138 15.0
140 9.0
151 15.0
153 3.04984759446376
163 1.83548069293539
165 20.0
167 20.0
178 1.32154609891348
180 0.842233385663186
191 1.26558121681553
193 0.572481933717686
211 1.26558121681553
213 33.5
215 2.30162356062425
222 9.0
224 9.0
231 9.0
233 9.0
244 3.04984759446376
246 1.04900943706034
257 3.04984759446376
259 1.11894339953103
270 3.04984759446376
272 1.18887736200171
283 1.18887736200171
285 0.78338879230327
296 1.18887736200171
298 0.940066550763924
305 0.940066550763924
307 0.705049913072943
318 0.940066550763924
320 0.994083415506506
330 0.940066550763924
332 30.0
334 15.0
345 0.705049913072943
347 0.666992981045719
358 0.705049913072943
360 0.480234946352917
371 0.994083415506506
373 0.690184503917672
380 15.0
382 13.5
389 15.0
391 9.0
402 15.0
404 3.04984759446376
414 0.666992981045719
416 25.0
418 25.0
429 0.480234946352917
431 0.392200822712722
442 0.690184503917672
444 0.367386387824208
462 0.690184503917672
464 38.5
466 2.3895954367396
473 9.0
475 9.0
482 9.0
484 9.0
495 3.04984759446376
497 1.04900943706034
508 3.04984759446376
510 1.11894339953103
521 3.04984759446376
523 1.18887736200171
524 -1.0
580 40.0
592 30.0
610 20.0
612 20.0
640 30.0
658 25.0
660 25.0
849 1.0
851 1.0
853 1.0
855 1.0
857 1.0
859 1.0
861 1.0
863 1.0
865 1.0
867 1.0
869 1.0
871 1.0
873 1.0
875 1.0
877 1.0
879 1.0
881 1.0
883 1.0
885 1.0
887 1.0
889 1.0
891 1.0
893 1.0
895 1.0
897 1.0
899 1.0
901 1.0
903 1.0
905 1.0
907 1.0
909 1.0
911 1.0
913 1.0
915 1.0
917 1.0
919 1.0
921 1.0
923 1.0
925 1.0
927 1.0
